(set-info :category "industrial")
(set-info :status sat)
(declare-fun x02 () (_ BitVec 8))
(declare-fun x03 () (_ BitVec 8))
(declare-fun x04 () (_ BitVec 8))
(declare-fun x06 () (_ BitVec 8))
(declare-fun x07 () (_ BitVec 8))
(declare-fun x10 () (_ BitVec 8))
(declare-fun x11 () (_ BitVec 8))
(declare-fun x13 () (_ BitVec 8))
(declare-fun x15 () (_ BitVec 8))
(declare-fun x16 () (_ BitVec 8))
(declare-fun x18 () (_ BitVec 8))
(declare-fun x20 () (_ BitVec 8))
(declare-fun x22 () (_ BitVec 8))
(declare-fun x23 () (_ BitVec 8))
(declare-fun x24 () (_ BitVec 8))
(declare-fun x27 () (_ BitVec 8))
(declare-fun x30 () (_ BitVec 8))
(declare-fun x32 () (_ BitVec 8))
(declare-fun x35 () (_ BitVec 8))
(declare-fun x37 () (_ BitVec 8))
(declare-fun x40 () (_ BitVec 8))
(declare-fun x41 () (_ BitVec 8))
(declare-fun x42 () (_ BitVec 8))
(declare-fun x43 () (_ BitVec 8))
(declare-fun x45 () (_ BitVec 8))
(declare-fun x46 () (_ BitVec 8))
(declare-fun x50 () (_ BitVec 8))
(declare-fun x51 () (_ BitVec 8))
(declare-fun x53 () (_ BitVec 8))
(declare-fun x56 () (_ BitVec 8))
(declare-fun x58 () (_ BitVec 8))
(declare-fun x60 () (_ BitVec 8))
(declare-fun x62 () (_ BitVec 8))
(declare-fun x63 () (_ BitVec 8))
(declare-fun x64 () (_ BitVec 8))
(declare-fun x68 () (_ BitVec 8))
(declare-fun x71 () (_ BitVec 8))
(declare-fun x72 () (_ BitVec 8))
(declare-fun x74 () (_ BitVec 8))
(declare-fun x75 () (_ BitVec 8))
(declare-fun x76 () (_ BitVec 8))
(declare-fun x77 () (_ BitVec 8))
(declare-fun x78 () (_ BitVec 8))
(declare-fun x84 () (_ BitVec 8))
(declare-fun x85 () (_ BitVec 8))
(declare-fun x87 () (_ BitVec 8))
(declare-fun x88 () (_ BitVec 8))
(assert (bvult x02 (_ bv9 8)))
(assert (bvult x03 (_ bv9 8)))
(assert (bvult x04 (_ bv9 8)))
(assert (bvult x06 (_ bv9 8)))
(assert (bvult x07 (_ bv9 8)))
(assert (bvult x10 (_ bv9 8)))
(assert (bvult x11 (_ bv9 8)))
(assert (bvult x13 (_ bv9 8)))
(assert (bvult x15 (_ bv9 8)))
(assert (bvult x16 (_ bv9 8)))
(assert (bvult x18 (_ bv9 8)))
(assert (bvult x20 (_ bv9 8)))
(assert (bvult x22 (_ bv9 8)))
(assert (bvult x23 (_ bv9 8)))
(assert (bvult x24 (_ bv9 8)))
(assert (bvult x27 (_ bv9 8)))
(assert (bvult x30 (_ bv9 8)))
(assert (bvult x32 (_ bv9 8)))
(assert (bvult x35 (_ bv9 8)))
(assert (bvult x37 (_ bv9 8)))
(assert (bvult x40 (_ bv9 8)))
(assert (bvult x41 (_ bv9 8)))
(assert (bvult x42 (_ bv9 8)))
(assert (bvult x43 (_ bv9 8)))
(assert (bvult x45 (_ bv9 8)))
(assert (bvult x46 (_ bv9 8)))
(assert (bvult x50 (_ bv9 8)))
(assert (bvult x51 (_ bv9 8)))
(assert (bvult x53 (_ bv9 8)))
(assert (bvult x56 (_ bv9 8)))
(assert (bvult x58 (_ bv9 8)))
(assert (bvult x60 (_ bv9 8)))
(assert (bvult x62 (_ bv9 8)))
(assert (bvult x63 (_ bv9 8)))
(assert (bvult x64 (_ bv9 8)))
(assert (bvult x68 (_ bv9 8)))
(assert (bvult x71 (_ bv9 8)))
(assert (bvult x72 (_ bv9 8)))
(assert (bvult x74 (_ bv9 8)))
(assert (bvult x75 (_ bv9 8)))
(assert (bvult x76 (_ bv9 8)))
(assert (bvult x77 (_ bv9 8)))
(assert (bvult x78 (_ bv9 8)))
(assert (bvult x84 (_ bv9 8)))
(assert (bvult x85 (_ bv9 8)))
(assert (bvult x87 (_ bv9 8)))
(assert (bvult x88 (_ bv9 8)))
(assert (not (= (_ bv4 8) (_ bv6 8))))
(assert (not (= (_ bv4 8) x02)))
(assert (not (= (_ bv4 8) x03)))
(assert (not (= (_ bv4 8) x04)))
(assert (not (= (_ bv4 8) (_ bv5 8))))
(assert (not (= (_ bv4 8) x06)))
(assert (not (= (_ bv4 8) x07)))
(assert (not (= (_ bv4 8) (_ bv2 8))))
(assert (not (= (_ bv6 8) x02)))
(assert (not (= (_ bv6 8) x03)))
(assert (not (= (_ bv6 8) x04)))
(assert (not (= (_ bv6 8) (_ bv5 8))))
(assert (not (= (_ bv6 8) x06)))
(assert (not (= (_ bv6 8) x07)))
(assert (not (= (_ bv6 8) (_ bv2 8))))
(assert (not (= x02 x03)))
(assert (not (= x02 x04)))
(assert (not (= x02 (_ bv5 8))))
(assert (not (= x02 x06)))
(assert (not (= x02 x07)))
(assert (not (= x02 (_ bv2 8))))
(assert (not (= x03 x04)))
(assert (not (= x03 (_ bv5 8))))
(assert (not (= x03 x06)))
(assert (not (= x03 x07)))
(assert (not (= x03 (_ bv2 8))))
(assert (not (= x04 (_ bv5 8))))
(assert (not (= x04 x06)))
(assert (not (= x04 x07)))
(assert (not (= x04 (_ bv2 8))))
(assert (not (= (_ bv5 8) x06)))
(assert (not (= (_ bv5 8) x07)))
(assert (not (= (_ bv5 8) (_ bv2 8))))
(assert (not (= x06 x07)))
(assert (not (= x06 (_ bv2 8))))
(assert (not (= x07 (_ bv2 8))))
(assert (not (= x10 x11)))
(assert (not (= x10 (_ bv7 8))))
(assert (not (= x10 x13)))
(assert (not (= x10 (_ bv3 8))))
(assert (not (= x10 x15)))
(assert (not (= x10 x16)))
(assert (not (= x10 (_ bv1 8))))
(assert (not (= x10 x18)))
(assert (not (= x11 (_ bv7 8))))
(assert (not (= x11 x13)))
(assert (not (= x11 (_ bv3 8))))
(assert (not (= x11 x15)))
(assert (not (= x11 x16)))
(assert (not (= x11 (_ bv1 8))))
(assert (not (= x11 x18)))
(assert (not (= (_ bv7 8) x13)))
(assert (not (= (_ bv7 8) (_ bv3 8))))
(assert (not (= (_ bv7 8) x15)))
(assert (not (= (_ bv7 8) x16)))
(assert (not (= (_ bv7 8) (_ bv1 8))))
(assert (not (= (_ bv7 8) x18)))
(assert (not (= x13 (_ bv3 8))))
(assert (not (= x13 x15)))
(assert (not (= x13 x16)))
(assert (not (= x13 (_ bv1 8))))
(assert (not (= x13 x18)))
(assert (not (= (_ bv3 8) x15)))
(assert (not (= (_ bv3 8) x16)))
(assert (not (= (_ bv3 8) (_ bv1 8))))
(assert (not (= (_ bv3 8) x18)))
(assert (not (= x15 x16)))
(assert (not (= x15 (_ bv1 8))))
(assert (not (= x15 x18)))
(assert (not (= x16 (_ bv1 8))))
(assert (not (= x16 x18)))
(assert (not (= (_ bv1 8) x18)))
(assert (not (= x20 (_ bv1 8))))
(assert (not (= x20 x22)))
(assert (not (= x20 x23)))
(assert (not (= x20 x24)))
(assert (not (= x20 (_ bv6 8))))
(assert (not (= x20 (_ bv7 8))))
(assert (not (= x20 x27)))
(assert (not (= x20 (_ bv4 8))))
(assert (not (= (_ bv1 8) x22)))
(assert (not (= (_ bv1 8) x23)))
(assert (not (= (_ bv1 8) x24)))
(assert (not (= (_ bv1 8) (_ bv6 8))))
(assert (not (= (_ bv1 8) (_ bv7 8))))
(assert (not (= (_ bv1 8) x27)))
(assert (not (= (_ bv1 8) (_ bv4 8))))
(assert (not (= x22 x23)))
(assert (not (= x22 x24)))
(assert (not (= x22 (_ bv6 8))))
(assert (not (= x22 (_ bv7 8))))
(assert (not (= x22 x27)))
(assert (not (= x22 (_ bv4 8))))
(assert (not (= x23 x24)))
(assert (not (= x23 (_ bv6 8))))
(assert (not (= x23 (_ bv7 8))))
(assert (not (= x23 x27)))
(assert (not (= x23 (_ bv4 8))))
(assert (not (= x24 (_ bv6 8))))
(assert (not (= x24 (_ bv7 8))))
(assert (not (= x24 x27)))
(assert (not (= x24 (_ bv4 8))))
(assert (not (= (_ bv6 8) (_ bv7 8))))
(assert (not (= (_ bv6 8) x27)))
(assert (not (= (_ bv6 8) (_ bv4 8))))
(assert (not (= (_ bv7 8) x27)))
(assert (not (= (_ bv7 8) (_ bv4 8))))
(assert (not (= x27 (_ bv4 8))))
(assert (not (= x30 (_ bv8 8))))
(assert (not (= x30 x32)))
(assert (not (= x30 (_ bv5 8))))
(assert (not (= x30 (_ bv9 8))))
(assert (not (= x30 x35)))
(assert (not (= x30 (_ bv6 8))))
(assert (not (= x30 x37)))
(assert (not (= x30 (_ bv3 8))))
(assert (not (= (_ bv8 8) x32)))
(assert (not (= (_ bv8 8) (_ bv5 8))))
(assert (not (= (_ bv8 8) (_ bv9 8))))
(assert (not (= (_ bv8 8) x35)))
(assert (not (= (_ bv8 8) (_ bv6 8))))
(assert (not (= (_ bv8 8) x37)))
(assert (not (= (_ bv8 8) (_ bv3 8))))
(assert (not (= x32 (_ bv5 8))))
(assert (not (= x32 (_ bv9 8))))
(assert (not (= x32 x35)))
(assert (not (= x32 (_ bv6 8))))
(assert (not (= x32 x37)))
(assert (not (= x32 (_ bv3 8))))
(assert (not (= (_ bv5 8) (_ bv9 8))))
(assert (not (= (_ bv5 8) x35)))
(assert (not (= (_ bv5 8) (_ bv6 8))))
(assert (not (= (_ bv5 8) x37)))
(assert (not (= (_ bv5 8) (_ bv3 8))))
(assert (not (= (_ bv9 8) x35)))
(assert (not (= (_ bv9 8) (_ bv6 8))))
(assert (not (= (_ bv9 8) x37)))
(assert (not (= (_ bv9 8) (_ bv3 8))))
(assert (not (= x35 (_ bv6 8))))
(assert (not (= x35 x37)))
(assert (not (= x35 (_ bv3 8))))
(assert (not (= (_ bv6 8) x37)))
(assert (not (= (_ bv6 8) (_ bv3 8))))
(assert (not (= x37 (_ bv3 8))))
(assert (not (= x40 x41)))
(assert (not (= x40 x42)))
(assert (not (= x40 x43)))
(assert (not (= x40 (_ bv4 8))))
(assert (not (= x40 x45)))
(assert (not (= x40 x46)))
(assert (not (= x40 (_ bv5 8))))
(assert (not (= x40 (_ bv8 8))))
(assert (not (= x41 x42)))
(assert (not (= x41 x43)))
(assert (not (= x41 (_ bv4 8))))
(assert (not (= x41 x45)))
(assert (not (= x41 x46)))
(assert (not (= x41 (_ bv5 8))))
(assert (not (= x41 (_ bv8 8))))
(assert (not (= x42 x43)))
(assert (not (= x42 (_ bv4 8))))
(assert (not (= x42 x45)))
(assert (not (= x42 x46)))
(assert (not (= x42 (_ bv5 8))))
(assert (not (= x42 (_ bv8 8))))
(assert (not (= x43 (_ bv4 8))))
(assert (not (= x43 x45)))
(assert (not (= x43 x46)))
(assert (not (= x43 (_ bv5 8))))
(assert (not (= x43 (_ bv8 8))))
(assert (not (= (_ bv4 8) x45)))
(assert (not (= (_ bv4 8) x46)))
(assert (not (= (_ bv4 8) (_ bv5 8))))
(assert (not (= (_ bv4 8) (_ bv8 8))))
(assert (not (= x45 x46)))
(assert (not (= x45 (_ bv5 8))))
(assert (not (= x45 (_ bv8 8))))
(assert (not (= x46 (_ bv5 8))))
(assert (not (= x46 (_ bv8 8))))
(assert (not (= (_ bv5 8) (_ bv8 8))))
(assert (not (= x50 x51)))
(assert (not (= x50 (_ bv6 8))))
(assert (not (= x50 x53)))
(assert (not (= x50 (_ bv2 8))))
(assert (not (= x50 (_ bv7 8))))
(assert (not (= x50 x56)))
(assert (not (= x50 (_ bv9 8))))
(assert (not (= x50 x58)))
(assert (not (= x51 (_ bv6 8))))
(assert (not (= x51 x53)))
(assert (not (= x51 (_ bv2 8))))
(assert (not (= x51 (_ bv7 8))))
(assert (not (= x51 x56)))
(assert (not (= x51 (_ bv9 8))))
(assert (not (= x51 x58)))
(assert (not (= (_ bv6 8) x53)))
(assert (not (= (_ bv6 8) (_ bv2 8))))
(assert (not (= (_ bv6 8) (_ bv7 8))))
(assert (not (= (_ bv6 8) x56)))
(assert (not (= (_ bv6 8) (_ bv9 8))))
(assert (not (= (_ bv6 8) x58)))
(assert (not (= x53 (_ bv2 8))))
(assert (not (= x53 (_ bv7 8))))
(assert (not (= x53 x56)))
(assert (not (= x53 (_ bv9 8))))
(assert (not (= x53 x58)))
(assert (not (= (_ bv2 8) (_ bv7 8))))
(assert (not (= (_ bv2 8) x56)))
(assert (not (= (_ bv2 8) (_ bv9 8))))
(assert (not (= (_ bv2 8) x58)))
(assert (not (= (_ bv7 8) x56)))
(assert (not (= (_ bv7 8) (_ bv9 8))))
(assert (not (= (_ bv7 8) x58)))
(assert (not (= x56 (_ bv9 8))))
(assert (not (= x56 x58)))
(assert (not (= (_ bv9 8) x58)))
(assert (not (= x60 (_ bv9 8))))
(assert (not (= x60 x62)))
(assert (not (= x60 x63)))
(assert (not (= x60 x64)))
(assert (not (= x60 (_ bv2 8))))
(assert (not (= x60 (_ bv1 8))))
(assert (not (= x60 (_ bv4 8))))
(assert (not (= x60 x68)))
(assert (not (= (_ bv9 8) x62)))
(assert (not (= (_ bv9 8) x63)))
(assert (not (= (_ bv9 8) x64)))
(assert (not (= (_ bv9 8) (_ bv2 8))))
(assert (not (= (_ bv9 8) (_ bv1 8))))
(assert (not (= (_ bv9 8) (_ bv4 8))))
(assert (not (= (_ bv9 8) x68)))
(assert (not (= x62 x63)))
(assert (not (= x62 x64)))
(assert (not (= x62 (_ bv2 8))))
(assert (not (= x62 (_ bv1 8))))
(assert (not (= x62 (_ bv4 8))))
(assert (not (= x62 x68)))
(assert (not (= x63 x64)))
(assert (not (= x63 (_ bv2 8))))
(assert (not (= x63 (_ bv1 8))))
(assert (not (= x63 (_ bv4 8))))
(assert (not (= x63 x68)))
(assert (not (= x64 (_ bv2 8))))
(assert (not (= x64 (_ bv1 8))))
(assert (not (= x64 (_ bv4 8))))
(assert (not (= x64 x68)))
(assert (not (= (_ bv2 8) (_ bv1 8))))
(assert (not (= (_ bv2 8) (_ bv4 8))))
(assert (not (= (_ bv2 8) x68)))
(assert (not (= (_ bv1 8) (_ bv4 8))))
(assert (not (= (_ bv1 8) x68)))
(assert (not (= (_ bv4 8) x68)))
(assert (not (= (_ bv7 8) x71)))
(assert (not (= (_ bv7 8) x72)))
(assert (not (= (_ bv7 8) (_ bv9 8))))
(assert (not (= (_ bv7 8) x74)))
(assert (not (= (_ bv7 8) x75)))
(assert (not (= (_ bv7 8) x76)))
(assert (not (= (_ bv7 8) x77)))
(assert (not (= (_ bv7 8) x78)))
(assert (not (= x71 x72)))
(assert (not (= x71 (_ bv9 8))))
(assert (not (= x71 x74)))
(assert (not (= x71 x75)))
(assert (not (= x71 x76)))
(assert (not (= x71 x77)))
(assert (not (= x71 x78)))
(assert (not (= x72 (_ bv9 8))))
(assert (not (= x72 x74)))
(assert (not (= x72 x75)))
(assert (not (= x72 x76)))
(assert (not (= x72 x77)))
(assert (not (= x72 x78)))
(assert (not (= (_ bv9 8) x74)))
(assert (not (= (_ bv9 8) x75)))
(assert (not (= (_ bv9 8) x76)))
(assert (not (= (_ bv9 8) x77)))
(assert (not (= (_ bv9 8) x78)))
(assert (not (= x74 x75)))
(assert (not (= x74 x76)))
(assert (not (= x74 x77)))
(assert (not (= x74 x78)))
(assert (not (= x75 x76)))
(assert (not (= x75 x77)))
(assert (not (= x75 x78)))
(assert (not (= x76 x77)))
(assert (not (= x76 x78)))
(assert (not (= x77 x78)))
(assert (not (= (_ bv5 8) (_ bv4 8))))
(assert (not (= (_ bv5 8) (_ bv1 8))))
(assert (not (= (_ bv5 8) (_ bv7 8))))
(assert (not (= (_ bv5 8) x84)))
(assert (not (= (_ bv5 8) x85)))
(assert (not (= (_ bv5 8) (_ bv3 8))))
(assert (not (= (_ bv5 8) x87)))
(assert (not (= (_ bv5 8) x88)))
(assert (not (= (_ bv4 8) (_ bv1 8))))
(assert (not (= (_ bv4 8) (_ bv7 8))))
(assert (not (= (_ bv4 8) x84)))
(assert (not (= (_ bv4 8) x85)))
(assert (not (= (_ bv4 8) (_ bv3 8))))
(assert (not (= (_ bv4 8) x87)))
(assert (not (= (_ bv4 8) x88)))
(assert (not (= (_ bv1 8) (_ bv7 8))))
(assert (not (= (_ bv1 8) x84)))
(assert (not (= (_ bv1 8) x85)))
(assert (not (= (_ bv1 8) (_ bv3 8))))
(assert (not (= (_ bv1 8) x87)))
(assert (not (= (_ bv1 8) x88)))
(assert (not (= (_ bv7 8) x84)))
(assert (not (= (_ bv7 8) x85)))
(assert (not (= (_ bv7 8) (_ bv3 8))))
(assert (not (= (_ bv7 8) x87)))
(assert (not (= (_ bv7 8) x88)))
(assert (not (= x84 x85)))
(assert (not (= x84 (_ bv3 8))))
(assert (not (= x84 x87)))
(assert (not (= x84 x88)))
(assert (not (= x85 (_ bv3 8))))
(assert (not (= x85 x87)))
(assert (not (= x85 x88)))
(assert (not (= (_ bv3 8) x87)))
(assert (not (= (_ bv3 8) x88)))
(assert (not (= x87 x88)))
(assert (not (= (_ bv4 8) x10)))
(assert (not (= (_ bv4 8) x20)))
(assert (not (= (_ bv4 8) x30)))
(assert (not (= (_ bv4 8) x40)))
(assert (not (= (_ bv4 8) x50)))
(assert (not (= (_ bv4 8) x60)))
(assert (not (= (_ bv4 8) (_ bv7 8))))
(assert (not (= (_ bv4 8) (_ bv5 8))))
(assert (not (= x10 x20)))
(assert (not (= x10 x30)))
(assert (not (= x10 x40)))
(assert (not (= x10 x50)))
(assert (not (= x10 x60)))
(assert (not (= x10 (_ bv7 8))))
(assert (not (= x10 (_ bv5 8))))
(assert (not (= x20 x30)))
(assert (not (= x20 x40)))
(assert (not (= x20 x50)))
(assert (not (= x20 x60)))
(assert (not (= x20 (_ bv7 8))))
(assert (not (= x20 (_ bv5 8))))
(assert (not (= x30 x40)))
(assert (not (= x30 x50)))
(assert (not (= x30 x60)))
(assert (not (= x30 (_ bv7 8))))
(assert (not (= x30 (_ bv5 8))))
(assert (not (= x40 x50)))
(assert (not (= x40 x60)))
(assert (not (= x40 (_ bv7 8))))
(assert (not (= x40 (_ bv5 8))))
(assert (not (= x50 x60)))
(assert (not (= x50 (_ bv7 8))))
(assert (not (= x50 (_ bv5 8))))
(assert (not (= x60 (_ bv7 8))))
(assert (not (= x60 (_ bv5 8))))
(assert (not (= (_ bv7 8) (_ bv5 8))))
(assert (not (= (_ bv6 8) x11)))
(assert (not (= (_ bv6 8) (_ bv1 8))))
(assert (not (= (_ bv6 8) (_ bv8 8))))
(assert (not (= (_ bv6 8) x41)))
(assert (not (= (_ bv6 8) x51)))
(assert (not (= (_ bv6 8) (_ bv9 8))))
(assert (not (= (_ bv6 8) x71)))
(assert (not (= (_ bv6 8) (_ bv4 8))))
(assert (not (= x11 (_ bv1 8))))
(assert (not (= x11 (_ bv8 8))))
(assert (not (= x11 x41)))
(assert (not (= x11 x51)))
(assert (not (= x11 (_ bv9 8))))
(assert (not (= x11 x71)))
(assert (not (= x11 (_ bv4 8))))
(assert (not (= (_ bv1 8) (_ bv8 8))))
(assert (not (= (_ bv1 8) x41)))
(assert (not (= (_ bv1 8) x51)))
(assert (not (= (_ bv1 8) (_ bv9 8))))
(assert (not (= (_ bv1 8) x71)))
(assert (not (= (_ bv1 8) (_ bv4 8))))
(assert (not (= (_ bv8 8) x41)))
(assert (not (= (_ bv8 8) x51)))
(assert (not (= (_ bv8 8) (_ bv9 8))))
(assert (not (= (_ bv8 8) x71)))
(assert (not (= (_ bv8 8) (_ bv4 8))))
(assert (not (= x41 x51)))
(assert (not (= x41 (_ bv9 8))))
(assert (not (= x41 x71)))
(assert (not (= x41 (_ bv4 8))))
(assert (not (= x51 (_ bv9 8))))
(assert (not (= x51 x71)))
(assert (not (= x51 (_ bv4 8))))
(assert (not (= (_ bv9 8) x71)))
(assert (not (= (_ bv9 8) (_ bv4 8))))
(assert (not (= x71 (_ bv4 8))))
(assert (not (= x02 (_ bv7 8))))
(assert (not (= x02 x22)))
(assert (not (= x02 x32)))
(assert (not (= x02 x42)))
(assert (not (= x02 (_ bv6 8))))
(assert (not (= x02 x62)))
(assert (not (= x02 x72)))
(assert (not (= x02 (_ bv1 8))))
(assert (not (= (_ bv7 8) x22)))
(assert (not (= (_ bv7 8) x32)))
(assert (not (= (_ bv7 8) x42)))
(assert (not (= (_ bv7 8) (_ bv6 8))))
(assert (not (= (_ bv7 8) x62)))
(assert (not (= (_ bv7 8) x72)))
(assert (not (= (_ bv7 8) (_ bv1 8))))
(assert (not (= x22 x32)))
(assert (not (= x22 x42)))
(assert (not (= x22 (_ bv6 8))))
(assert (not (= x22 x62)))
(assert (not (= x22 x72)))
(assert (not (= x22 (_ bv1 8))))
(assert (not (= x32 x42)))
(assert (not (= x32 (_ bv6 8))))
(assert (not (= x32 x62)))
(assert (not (= x32 x72)))
(assert (not (= x32 (_ bv1 8))))
(assert (not (= x42 (_ bv6 8))))
(assert (not (= x42 x62)))
(assert (not (= x42 x72)))
(assert (not (= x42 (_ bv1 8))))
(assert (not (= (_ bv6 8) x62)))
(assert (not (= (_ bv6 8) x72)))
(assert (not (= (_ bv6 8) (_ bv1 8))))
(assert (not (= x62 x72)))
(assert (not (= x62 (_ bv1 8))))
(assert (not (= x72 (_ bv1 8))))
(assert (not (= x03 x13)))
(assert (not (= x03 x23)))
(assert (not (= x03 (_ bv5 8))))
(assert (not (= x03 x43)))
(assert (not (= x03 x53)))
(assert (not (= x03 x63)))
(assert (not (= x03 (_ bv9 8))))
(assert (not (= x03 (_ bv7 8))))
(assert (not (= x13 x23)))
(assert (not (= x13 (_ bv5 8))))
(assert (not (= x13 x43)))
(assert (not (= x13 x53)))
(assert (not (= x13 x63)))
(assert (not (= x13 (_ bv9 8))))
(assert (not (= x13 (_ bv7 8))))
(assert (not (= x23 (_ bv5 8))))
(assert (not (= x23 x43)))
(assert (not (= x23 x53)))
(assert (not (= x23 x63)))
(assert (not (= x23 (_ bv9 8))))
(assert (not (= x23 (_ bv7 8))))
(assert (not (= (_ bv5 8) x43)))
(assert (not (= (_ bv5 8) x53)))
(assert (not (= (_ bv5 8) x63)))
(assert (not (= (_ bv5 8) (_ bv9 8))))
(assert (not (= (_ bv5 8) (_ bv7 8))))
(assert (not (= x43 x53)))
(assert (not (= x43 x63)))
(assert (not (= x43 (_ bv9 8))))
(assert (not (= x43 (_ bv7 8))))
(assert (not (= x53 x63)))
(assert (not (= x53 (_ bv9 8))))
(assert (not (= x53 (_ bv7 8))))
(assert (not (= x63 (_ bv9 8))))
(assert (not (= x63 (_ bv7 8))))
(assert (not (= (_ bv9 8) (_ bv7 8))))
(assert (not (= x04 (_ bv3 8))))
(assert (not (= x04 x24)))
(assert (not (= x04 (_ bv9 8))))
(assert (not (= x04 (_ bv4 8))))
(assert (not (= x04 (_ bv2 8))))
(assert (not (= x04 x64)))
(assert (not (= x04 x74)))
(assert (not (= x04 x84)))
(assert (not (= (_ bv3 8) x24)))
(assert (not (= (_ bv3 8) (_ bv9 8))))
(assert (not (= (_ bv3 8) (_ bv4 8))))
(assert (not (= (_ bv3 8) (_ bv2 8))))
(assert (not (= (_ bv3 8) x64)))
(assert (not (= (_ bv3 8) x74)))
(assert (not (= (_ bv3 8) x84)))
(assert (not (= x24 (_ bv9 8))))
(assert (not (= x24 (_ bv4 8))))
(assert (not (= x24 (_ bv2 8))))
(assert (not (= x24 x64)))
(assert (not (= x24 x74)))
(assert (not (= x24 x84)))
(assert (not (= (_ bv9 8) (_ bv4 8))))
(assert (not (= (_ bv9 8) (_ bv2 8))))
(assert (not (= (_ bv9 8) x64)))
(assert (not (= (_ bv9 8) x74)))
(assert (not (= (_ bv9 8) x84)))
(assert (not (= (_ bv4 8) (_ bv2 8))))
(assert (not (= (_ bv4 8) x64)))
(assert (not (= (_ bv4 8) x74)))
(assert (not (= (_ bv4 8) x84)))
(assert (not (= (_ bv2 8) x64)))
(assert (not (= (_ bv2 8) x74)))
(assert (not (= (_ bv2 8) x84)))
(assert (not (= x64 x74)))
(assert (not (= x64 x84)))
(assert (not (= x74 x84)))
(assert (not (= (_ bv5 8) x15)))
(assert (not (= (_ bv5 8) (_ bv6 8))))
(assert (not (= (_ bv5 8) x35)))
(assert (not (= (_ bv5 8) x45)))
(assert (not (= (_ bv5 8) (_ bv7 8))))
(assert (not (= (_ bv5 8) (_ bv2 8))))
(assert (not (= (_ bv5 8) x75)))
(assert (not (= (_ bv5 8) x85)))
(assert (not (= x15 (_ bv6 8))))
(assert (not (= x15 x35)))
(assert (not (= x15 x45)))
(assert (not (= x15 (_ bv7 8))))
(assert (not (= x15 (_ bv2 8))))
(assert (not (= x15 x75)))
(assert (not (= x15 x85)))
(assert (not (= (_ bv6 8) x35)))
(assert (not (= (_ bv6 8) x45)))
(assert (not (= (_ bv6 8) (_ bv7 8))))
(assert (not (= (_ bv6 8) (_ bv2 8))))
(assert (not (= (_ bv6 8) x75)))
(assert (not (= (_ bv6 8) x85)))
(assert (not (= x35 x45)))
(assert (not (= x35 (_ bv7 8))))
(assert (not (= x35 (_ bv2 8))))
(assert (not (= x35 x75)))
(assert (not (= x35 x85)))
(assert (not (= x45 (_ bv7 8))))
(assert (not (= x45 (_ bv2 8))))
(assert (not (= x45 x75)))
(assert (not (= x45 x85)))
(assert (not (= (_ bv7 8) (_ bv2 8))))
(assert (not (= (_ bv7 8) x75)))
(assert (not (= (_ bv7 8) x85)))
(assert (not (= (_ bv2 8) x75)))
(assert (not (= (_ bv2 8) x85)))
(assert (not (= x75 x85)))
(assert (not (= x06 x16)))
(assert (not (= x06 (_ bv7 8))))
(assert (not (= x06 (_ bv6 8))))
(assert (not (= x06 x46)))
(assert (not (= x06 x56)))
(assert (not (= x06 (_ bv1 8))))
(assert (not (= x06 x76)))
(assert (not (= x06 (_ bv3 8))))
(assert (not (= x16 (_ bv7 8))))
(assert (not (= x16 (_ bv6 8))))
(assert (not (= x16 x46)))
(assert (not (= x16 x56)))
(assert (not (= x16 (_ bv1 8))))
(assert (not (= x16 x76)))
(assert (not (= x16 (_ bv3 8))))
(assert (not (= (_ bv7 8) (_ bv6 8))))
(assert (not (= (_ bv7 8) x46)))
(assert (not (= (_ bv7 8) x56)))
(assert (not (= (_ bv7 8) (_ bv1 8))))
(assert (not (= (_ bv7 8) x76)))
(assert (not (= (_ bv7 8) (_ bv3 8))))
(assert (not (= (_ bv6 8) x46)))
(assert (not (= (_ bv6 8) x56)))
(assert (not (= (_ bv6 8) (_ bv1 8))))
(assert (not (= (_ bv6 8) x76)))
(assert (not (= (_ bv6 8) (_ bv3 8))))
(assert (not (= x46 x56)))
(assert (not (= x46 (_ bv1 8))))
(assert (not (= x46 x76)))
(assert (not (= x46 (_ bv3 8))))
(assert (not (= x56 (_ bv1 8))))
(assert (not (= x56 x76)))
(assert (not (= x56 (_ bv3 8))))
(assert (not (= (_ bv1 8) x76)))
(assert (not (= (_ bv1 8) (_ bv3 8))))
(assert (not (= x76 (_ bv3 8))))
(assert (not (= x07 (_ bv1 8))))
(assert (not (= x07 x27)))
(assert (not (= x07 x37)))
(assert (not (= x07 (_ bv5 8))))
(assert (not (= x07 (_ bv9 8))))
(assert (not (= x07 (_ bv4 8))))
(assert (not (= x07 x77)))
(assert (not (= x07 x87)))
(assert (not (= (_ bv1 8) x27)))
(assert (not (= (_ bv1 8) x37)))
(assert (not (= (_ bv1 8) (_ bv5 8))))
(assert (not (= (_ bv1 8) (_ bv9 8))))
(assert (not (= (_ bv1 8) (_ bv4 8))))
(assert (not (= (_ bv1 8) x77)))
(assert (not (= (_ bv1 8) x87)))
(assert (not (= x27 x37)))
(assert (not (= x27 (_ bv5 8))))
(assert (not (= x27 (_ bv9 8))))
(assert (not (= x27 (_ bv4 8))))
(assert (not (= x27 x77)))
(assert (not (= x27 x87)))
(assert (not (= x37 (_ bv5 8))))
(assert (not (= x37 (_ bv9 8))))
(assert (not (= x37 (_ bv4 8))))
(assert (not (= x37 x77)))
(assert (not (= x37 x87)))
(assert (not (= (_ bv5 8) (_ bv9 8))))
(assert (not (= (_ bv5 8) (_ bv4 8))))
(assert (not (= (_ bv5 8) x77)))
(assert (not (= (_ bv5 8) x87)))
(assert (not (= (_ bv9 8) (_ bv4 8))))
(assert (not (= (_ bv9 8) x77)))
(assert (not (= (_ bv9 8) x87)))
(assert (not (= (_ bv4 8) x77)))
(assert (not (= (_ bv4 8) x87)))
(assert (not (= x77 x87)))
(assert (not (= (_ bv2 8) x18)))
(assert (not (= (_ bv2 8) (_ bv4 8))))
(assert (not (= (_ bv2 8) (_ bv3 8))))
(assert (not (= (_ bv2 8) (_ bv8 8))))
(assert (not (= (_ bv2 8) x58)))
(assert (not (= (_ bv2 8) x68)))
(assert (not (= (_ bv2 8) x78)))
(assert (not (= (_ bv2 8) x88)))
(assert (not (= x18 (_ bv4 8))))
(assert (not (= x18 (_ bv3 8))))
(assert (not (= x18 (_ bv8 8))))
(assert (not (= x18 x58)))
(assert (not (= x18 x68)))
(assert (not (= x18 x78)))
(assert (not (= x18 x88)))
(assert (not (= (_ bv4 8) (_ bv3 8))))
(assert (not (= (_ bv4 8) (_ bv8 8))))
(assert (not (= (_ bv4 8) x58)))
(assert (not (= (_ bv4 8) x68)))
(assert (not (= (_ bv4 8) x78)))
(assert (not (= (_ bv4 8) x88)))
(assert (not (= (_ bv3 8) (_ bv8 8))))
(assert (not (= (_ bv3 8) x58)))
(assert (not (= (_ bv3 8) x68)))
(assert (not (= (_ bv3 8) x78)))
(assert (not (= (_ bv3 8) x88)))
(assert (not (= (_ bv8 8) x58)))
(assert (not (= (_ bv8 8) x68)))
(assert (not (= (_ bv8 8) x78)))
(assert (not (= (_ bv8 8) x88)))
(assert (not (= x58 x68)))
(assert (not (= x58 x78)))
(assert (not (= x58 x88)))
(assert (not (= x68 x78)))
(assert (not (= x68 x88)))
(assert (not (= x78 x88)))
(assert (not (= (_ bv4 8) (_ bv6 8))))
(assert (not (= (_ bv4 8) x02)))
(assert (not (= (_ bv4 8) x10)))
(assert (not (= (_ bv4 8) x11)))
(assert (not (= (_ bv4 8) (_ bv7 8))))
(assert (not (= (_ bv4 8) x20)))
(assert (not (= (_ bv4 8) (_ bv1 8))))
(assert (not (= (_ bv4 8) x22)))
(assert (not (= (_ bv6 8) x02)))
(assert (not (= (_ bv6 8) x10)))
(assert (not (= (_ bv6 8) x11)))
(assert (not (= (_ bv6 8) (_ bv7 8))))
(assert (not (= (_ bv6 8) x20)))
(assert (not (= (_ bv6 8) (_ bv1 8))))
(assert (not (= (_ bv6 8) x22)))
(assert (not (= x02 x10)))
(assert (not (= x02 x11)))
(assert (not (= x02 (_ bv7 8))))
(assert (not (= x02 x20)))
(assert (not (= x02 (_ bv1 8))))
(assert (not (= x02 x22)))
(assert (not (= x10 x11)))
(assert (not (= x10 (_ bv7 8))))
(assert (not (= x10 x20)))
(assert (not (= x10 (_ bv1 8))))
(assert (not (= x10 x22)))
(assert (not (= x11 (_ bv7 8))))
(assert (not (= x11 x20)))
(assert (not (= x11 (_ bv1 8))))
(assert (not (= x11 x22)))
(assert (not (= (_ bv7 8) x20)))
(assert (not (= (_ bv7 8) (_ bv1 8))))
(assert (not (= (_ bv7 8) x22)))
(assert (not (= x20 (_ bv1 8))))
(assert (not (= x20 x22)))
(assert (not (= (_ bv1 8) x22)))
(assert (not (= x03 x04)))
(assert (not (= x03 (_ bv5 8))))
(assert (not (= x03 x13)))
(assert (not (= x03 (_ bv3 8))))
(assert (not (= x03 x15)))
(assert (not (= x03 x23)))
(assert (not (= x03 x24)))
(assert (not (= x03 (_ bv6 8))))
(assert (not (= x04 (_ bv5 8))))
(assert (not (= x04 x13)))
(assert (not (= x04 (_ bv3 8))))
(assert (not (= x04 x15)))
(assert (not (= x04 x23)))
(assert (not (= x04 x24)))
(assert (not (= x04 (_ bv6 8))))
(assert (not (= (_ bv5 8) x13)))
(assert (not (= (_ bv5 8) (_ bv3 8))))
(assert (not (= (_ bv5 8) x15)))
(assert (not (= (_ bv5 8) x23)))
(assert (not (= (_ bv5 8) x24)))
(assert (not (= (_ bv5 8) (_ bv6 8))))
(assert (not (= x13 (_ bv3 8))))
(assert (not (= x13 x15)))
(assert (not (= x13 x23)))
(assert (not (= x13 x24)))
(assert (not (= x13 (_ bv6 8))))
(assert (not (= (_ bv3 8) x15)))
(assert (not (= (_ bv3 8) x23)))
(assert (not (= (_ bv3 8) x24)))
(assert (not (= (_ bv3 8) (_ bv6 8))))
(assert (not (= x15 x23)))
(assert (not (= x15 x24)))
(assert (not (= x15 (_ bv6 8))))
(assert (not (= x23 x24)))
(assert (not (= x23 (_ bv6 8))))
(assert (not (= x24 (_ bv6 8))))
(assert (not (= x06 x07)))
(assert (not (= x06 (_ bv2 8))))
(assert (not (= x06 x16)))
(assert (not (= x06 (_ bv1 8))))
(assert (not (= x06 x18)))
(assert (not (= x06 (_ bv7 8))))
(assert (not (= x06 x27)))
(assert (not (= x06 (_ bv4 8))))
(assert (not (= x07 (_ bv2 8))))
(assert (not (= x07 x16)))
(assert (not (= x07 (_ bv1 8))))
(assert (not (= x07 x18)))
(assert (not (= x07 (_ bv7 8))))
(assert (not (= x07 x27)))
(assert (not (= x07 (_ bv4 8))))
(assert (not (= (_ bv2 8) x16)))
(assert (not (= (_ bv2 8) (_ bv1 8))))
(assert (not (= (_ bv2 8) x18)))
(assert (not (= (_ bv2 8) (_ bv7 8))))
(assert (not (= (_ bv2 8) x27)))
(assert (not (= (_ bv2 8) (_ bv4 8))))
(assert (not (= x16 (_ bv1 8))))
(assert (not (= x16 x18)))
(assert (not (= x16 (_ bv7 8))))
(assert (not (= x16 x27)))
(assert (not (= x16 (_ bv4 8))))
(assert (not (= (_ bv1 8) x18)))
(assert (not (= (_ bv1 8) (_ bv7 8))))
(assert (not (= (_ bv1 8) x27)))
(assert (not (= (_ bv1 8) (_ bv4 8))))
(assert (not (= x18 (_ bv7 8))))
(assert (not (= x18 x27)))
(assert (not (= x18 (_ bv4 8))))
(assert (not (= (_ bv7 8) x27)))
(assert (not (= (_ bv7 8) (_ bv4 8))))
(assert (not (= x27 (_ bv4 8))))
(assert (not (= x30 (_ bv8 8))))
(assert (not (= x30 x32)))
(assert (not (= x30 x40)))
(assert (not (= x30 x41)))
(assert (not (= x30 x42)))
(assert (not (= x30 x50)))
(assert (not (= x30 x51)))
(assert (not (= x30 (_ bv6 8))))
(assert (not (= (_ bv8 8) x32)))
(assert (not (= (_ bv8 8) x40)))
(assert (not (= (_ bv8 8) x41)))
(assert (not (= (_ bv8 8) x42)))
(assert (not (= (_ bv8 8) x50)))
(assert (not (= (_ bv8 8) x51)))
(assert (not (= (_ bv8 8) (_ bv6 8))))
(assert (not (= x32 x40)))
(assert (not (= x32 x41)))
(assert (not (= x32 x42)))
(assert (not (= x32 x50)))
(assert (not (= x32 x51)))
(assert (not (= x32 (_ bv6 8))))
(assert (not (= x40 x41)))
(assert (not (= x40 x42)))
(assert (not (= x40 x50)))
(assert (not (= x40 x51)))
(assert (not (= x40 (_ bv6 8))))
(assert (not (= x41 x42)))
(assert (not (= x41 x50)))
(assert (not (= x41 x51)))
(assert (not (= x41 (_ bv6 8))))
(assert (not (= x42 x50)))
(assert (not (= x42 x51)))
(assert (not (= x42 (_ bv6 8))))
(assert (not (= x50 x51)))
(assert (not (= x50 (_ bv6 8))))
(assert (not (= x51 (_ bv6 8))))
(assert (not (= (_ bv5 8) (_ bv9 8))))
(assert (not (= (_ bv5 8) x35)))
(assert (not (= (_ bv5 8) x43)))
(assert (not (= (_ bv5 8) (_ bv4 8))))
(assert (not (= (_ bv5 8) x45)))
(assert (not (= (_ bv5 8) x53)))
(assert (not (= (_ bv5 8) (_ bv2 8))))
(assert (not (= (_ bv5 8) (_ bv7 8))))
(assert (not (= (_ bv9 8) x35)))
(assert (not (= (_ bv9 8) x43)))
(assert (not (= (_ bv9 8) (_ bv4 8))))
(assert (not (= (_ bv9 8) x45)))
(assert (not (= (_ bv9 8) x53)))
(assert (not (= (_ bv9 8) (_ bv2 8))))
(assert (not (= (_ bv9 8) (_ bv7 8))))
(assert (not (= x35 x43)))
(assert (not (= x35 (_ bv4 8))))
(assert (not (= x35 x45)))
(assert (not (= x35 x53)))
(assert (not (= x35 (_ bv2 8))))
(assert (not (= x35 (_ bv7 8))))
(assert (not (= x43 (_ bv4 8))))
(assert (not (= x43 x45)))
(assert (not (= x43 x53)))
(assert (not (= x43 (_ bv2 8))))
(assert (not (= x43 (_ bv7 8))))
(assert (not (= (_ bv4 8) x45)))
(assert (not (= (_ bv4 8) x53)))
(assert (not (= (_ bv4 8) (_ bv2 8))))
(assert (not (= (_ bv4 8) (_ bv7 8))))
(assert (not (= x45 x53)))
(assert (not (= x45 (_ bv2 8))))
(assert (not (= x45 (_ bv7 8))))
(assert (not (= x53 (_ bv2 8))))
(assert (not (= x53 (_ bv7 8))))
(assert (not (= (_ bv2 8) (_ bv7 8))))
(assert (not (= (_ bv6 8) x37)))
(assert (not (= (_ bv6 8) (_ bv3 8))))
(assert (not (= (_ bv6 8) x46)))
(assert (not (= (_ bv6 8) (_ bv5 8))))
(assert (not (= (_ bv6 8) (_ bv8 8))))
(assert (not (= (_ bv6 8) x56)))
(assert (not (= (_ bv6 8) (_ bv9 8))))
(assert (not (= (_ bv6 8) x58)))
(assert (not (= x37 (_ bv3 8))))
(assert (not (= x37 x46)))
(assert (not (= x37 (_ bv5 8))))
(assert (not (= x37 (_ bv8 8))))
(assert (not (= x37 x56)))
(assert (not (= x37 (_ bv9 8))))
(assert (not (= x37 x58)))
(assert (not (= (_ bv3 8) x46)))
(assert (not (= (_ bv3 8) (_ bv5 8))))
(assert (not (= (_ bv3 8) (_ bv8 8))))
(assert (not (= (_ bv3 8) x56)))
(assert (not (= (_ bv3 8) (_ bv9 8))))
(assert (not (= (_ bv3 8) x58)))
(assert (not (= x46 (_ bv5 8))))
(assert (not (= x46 (_ bv8 8))))
(assert (not (= x46 x56)))
(assert (not (= x46 (_ bv9 8))))
(assert (not (= x46 x58)))
(assert (not (= (_ bv5 8) (_ bv8 8))))
(assert (not (= (_ bv5 8) x56)))
(assert (not (= (_ bv5 8) (_ bv9 8))))
(assert (not (= (_ bv5 8) x58)))
(assert (not (= (_ bv8 8) x56)))
(assert (not (= (_ bv8 8) (_ bv9 8))))
(assert (not (= (_ bv8 8) x58)))
(assert (not (= x56 (_ bv9 8))))
(assert (not (= x56 x58)))
(assert (not (= (_ bv9 8) x58)))
(assert (not (= x60 (_ bv9 8))))
(assert (not (= x60 x62)))
(assert (not (= x60 (_ bv7 8))))
(assert (not (= x60 x71)))
(assert (not (= x60 x72)))
(assert (not (= x60 (_ bv5 8))))
(assert (not (= x60 (_ bv4 8))))
(assert (not (= x60 (_ bv1 8))))
(assert (not (= (_ bv9 8) x62)))
(assert (not (= (_ bv9 8) (_ bv7 8))))
(assert (not (= (_ bv9 8) x71)))
(assert (not (= (_ bv9 8) x72)))
(assert (not (= (_ bv9 8) (_ bv5 8))))
(assert (not (= (_ bv9 8) (_ bv4 8))))
(assert (not (= (_ bv9 8) (_ bv1 8))))
(assert (not (= x62 (_ bv7 8))))
(assert (not (= x62 x71)))
(assert (not (= x62 x72)))
(assert (not (= x62 (_ bv5 8))))
(assert (not (= x62 (_ bv4 8))))
(assert (not (= x62 (_ bv1 8))))
(assert (not (= (_ bv7 8) x71)))
(assert (not (= (_ bv7 8) x72)))
(assert (not (= (_ bv7 8) (_ bv5 8))))
(assert (not (= (_ bv7 8) (_ bv4 8))))
(assert (not (= (_ bv7 8) (_ bv1 8))))
(assert (not (= x71 x72)))
(assert (not (= x71 (_ bv5 8))))
(assert (not (= x71 (_ bv4 8))))
(assert (not (= x71 (_ bv1 8))))
(assert (not (= x72 (_ bv5 8))))
(assert (not (= x72 (_ bv4 8))))
(assert (not (= x72 (_ bv1 8))))
(assert (not (= (_ bv5 8) (_ bv4 8))))
(assert (not (= (_ bv5 8) (_ bv1 8))))
(assert (not (= (_ bv4 8) (_ bv1 8))))
(assert (not (= x63 x64)))
(assert (not (= x63 (_ bv2 8))))
(assert (not (= x63 (_ bv9 8))))
(assert (not (= x63 x74)))
(assert (not (= x63 x75)))
(assert (not (= x63 (_ bv7 8))))
(assert (not (= x63 x84)))
(assert (not (= x63 x85)))
(assert (not (= x64 (_ bv2 8))))
(assert (not (= x64 (_ bv9 8))))
(assert (not (= x64 x74)))
(assert (not (= x64 x75)))
(assert (not (= x64 (_ bv7 8))))
(assert (not (= x64 x84)))
(assert (not (= x64 x85)))
(assert (not (= (_ bv2 8) (_ bv9 8))))
(assert (not (= (_ bv2 8) x74)))
(assert (not (= (_ bv2 8) x75)))
(assert (not (= (_ bv2 8) (_ bv7 8))))
(assert (not (= (_ bv2 8) x84)))
(assert (not (= (_ bv2 8) x85)))
(assert (not (= (_ bv9 8) x74)))
(assert (not (= (_ bv9 8) x75)))
(assert (not (= (_ bv9 8) (_ bv7 8))))
(assert (not (= (_ bv9 8) x84)))
(assert (not (= (_ bv9 8) x85)))
(assert (not (= x74 x75)))
(assert (not (= x74 (_ bv7 8))))
(assert (not (= x74 x84)))
(assert (not (= x74 x85)))
(assert (not (= x75 (_ bv7 8))))
(assert (not (= x75 x84)))
(assert (not (= x75 x85)))
(assert (not (= (_ bv7 8) x84)))
(assert (not (= (_ bv7 8) x85)))
(assert (not (= x84 x85)))
(assert (not (= (_ bv1 8) (_ bv4 8))))
(assert (not (= (_ bv1 8) x68)))
(assert (not (= (_ bv1 8) x76)))
(assert (not (= (_ bv1 8) x77)))
(assert (not (= (_ bv1 8) x78)))
(assert (not (= (_ bv1 8) (_ bv3 8))))
(assert (not (= (_ bv1 8) x87)))
(assert (not (= (_ bv1 8) x88)))
(assert (not (= (_ bv4 8) x68)))
(assert (not (= (_ bv4 8) x76)))
(assert (not (= (_ bv4 8) x77)))
(assert (not (= (_ bv4 8) x78)))
(assert (not (= (_ bv4 8) (_ bv3 8))))
(assert (not (= (_ bv4 8) x87)))
(assert (not (= (_ bv4 8) x88)))
(assert (not (= x68 x76)))
(assert (not (= x68 x77)))
(assert (not (= x68 x78)))
(assert (not (= x68 (_ bv3 8))))
(assert (not (= x68 x87)))
(assert (not (= x68 x88)))
(assert (not (= x76 x77)))
(assert (not (= x76 x78)))
(assert (not (= x76 (_ bv3 8))))
(assert (not (= x76 x87)))
(assert (not (= x76 x88)))
(assert (not (= x77 x78)))
(assert (not (= x77 (_ bv3 8))))
(assert (not (= x77 x87)))
(assert (not (= x77 x88)))
(assert (not (= x78 (_ bv3 8))))
(assert (not (= x78 x87)))
(assert (not (= x78 x88)))
(assert (not (= (_ bv3 8) x87)))
(assert (not (= (_ bv3 8) x88)))
(assert (not (= x87 x88)))
(check-sat)
(exit)
